
Welcome to IBM(R) ILOG(R) CPLEX(R) Interactive Optimizer 22.1.1.0
  with Simplex, Mixed Integer & Barrier Optimizers
5725-A06 5725-A29 5724-Y48 5724-Y49 5724-Y54 5724-Y55 5655-Y21
Copyright IBM Corp. 1988, 2022.  All Rights Reserved.

Type 'help' for a list of available commands.
Type 'help' followed by a command name for more
information on commands.

CPLEX> Selected objective sense:  MINIMIZE
Selected objective  name:  00000000
Selected RHS        name:  RHS1
Selected bound      name:  BOUND
Problem 'ee.mps' read.
Read time = 0.03 sec. (3.14 ticks)
CPLEX> New value for time limit in seconds: 7200
CPLEX> New value for parallel optimization mode: -1
CPLEX> New value for default parallel thread count: 40
CPLEX> New value for mixed integer optimality gap tolerance: 1e-13
CPLEX> Version identifier: 22.1.1.0 | 2022-11-28 | 9160aff4d
CPXPARAM_Threads                                 40
CPXPARAM_Parallel                                -1
CPXPARAM_TimeLimit                               7200
CPXPARAM_MIP_Tolerances_MIPGap                   1e-13
Found incumbent of value 0.000000 after 0.00 sec. (0.31 ticks)
Tried aggregator 2 times.
MIP Presolve eliminated 182 rows and 2745 columns.
MIP Presolve modified 5862 coefficients.
Aggregator did 713 substitutions.
Reduced MIP has 3624 rows, 7744 columns, and 28667 nonzeros.
Reduced MIP has 7744 binaries, 0 generals, 0 SOSs, and 0 indicators.
Presolve time = 0.07 sec. (68.81 ticks)
Probing time = 0.03 sec. (5.30 ticks)
Tried aggregator 1 time.
Detecting symmetries...
Reduced MIP has 3624 rows, 7744 columns, and 28667 nonzeros.
Reduced MIP has 7744 binaries, 0 generals, 0 SOSs, and 0 indicators.
Presolve time = 0.02 sec. (21.94 ticks)
Probing time = 0.02 sec. (5.09 ticks)
Clique table members: 18558.
MIP emphasis: balance optimality and feasibility.
MIP search method: dynamic search.
Parallel mode: opportunistic, using up to 40 threads.
Root relaxation solution time = 0.14 sec. (136.27 ticks)

        Nodes                                         Cuts/
   Node  Left     Objective  IInf  Best Integer    Best Bound    ItCnt     Gap

*     0+    0                            0.0000  -1.31000e+13              --- 
*     0+    0                      -2.20000e+12  -1.31000e+13           495.46%
*     0+    0                      -3.30000e+12  -1.31000e+13           296.97%
*     0+    0                      -4.40000e+12  -1.31000e+13           197.73%
*     0+    0                      -5.50000e+12  -1.31000e+13           138.18%
      0     0  -1.30900e+13    93  -5.50000e+12  -1.30900e+13     2586  138.00%
*     0+    0                      -1.30900e+13  -1.30900e+13             0.00%
      0     0  -1.30900e+13   136  -1.30900e+13      Cuts: 66     4005    0.00%
*     0+    0                      -1.30900e+13  -1.30900e+13             0.00%
      0     0  -1.30900e+13   195  -1.30900e+13      Cuts: 82     4467    0.00%
*     0+    0                      -1.30900e+13  -1.30900e+13             0.00%
*     0+    0                      -1.30900e+13  -1.30900e+13             0.00%
*     0+    0                      -1.30900e+13  -1.30900e+13             0.00%
      0     2  -1.30900e+13   190  -1.30900e+13  -1.30900e+13     4467    0.00%
Elapsed time = 2.56 sec. (1430.75 ticks, tree = 0.02 MB, solutions = 20)
*     4+   30                      -1.30900e+13  -1.30900e+13             0.00%
    299    67  -1.30900e+13    56  -1.30900e+13  -1.30900e+13    20059    0.00%
    849   122  -1.30900e+13    36  -1.30900e+13  -1.30900e+13    34585    0.00%
   1493   254  -1.30900e+13   108  -1.30900e+13  -1.30900e+13    61501    0.00%
   2356   269  -1.30900e+13   214  -1.30900e+13  -1.30900e+13    81287    0.00%
   3184   314    infeasible        -1.30900e+13  -1.30900e+13   135536    0.00%
   4081   267  -1.30900e+13   184  -1.30900e+13  -1.30900e+13   218851    0.00%
   4914   185  -1.30900e+13   112  -1.30900e+13  -1.30900e+13   414956    0.00%
   5894   123        cutoff        -1.30900e+13  -1.30900e+13   321072    0.00%
   6923   518        cutoff        -1.30900e+13  -1.30900e+13   667651    0.00%
  10671   513        cutoff        -1.30900e+13  -1.30900e+13   718046    0.00%
Elapsed time = 7.81 sec. (4533.26 ticks, tree = 1.42 MB, solutions = 33)
  13110   507        cutoff        -1.30900e+13  -1.30900e+13   705997    0.00%

Performing restart 1

Repeating presolve.
Tried aggregator 4 times.
MIP Presolve eliminated 506 rows and 1538 columns.
MIP Presolve added 24 rows and 0 columns.
MIP Presolve modified 1696 coefficients.
Aggregator did 243 substitutions.
Reduced MIP has 2875 rows, 5927 columns, and 21493 nonzeros.
Reduced MIP has 5927 binaries, 0 generals, 0 SOSs, and 0 indicators.
Presolve time = 0.11 sec. (111.57 ticks)
Tried aggregator 2 times.
MIP Presolve eliminated 22 rows and 63 columns.
Aggregator did 19 substitutions.
Reduced MIP has 2834 rows, 5836 columns, and 21176 nonzeros.
Reduced MIP has 5836 binaries, 0 generals, 0 SOSs, and 0 indicators.
Presolve time = 0.04 sec. (35.90 ticks)
Tried aggregator 1 time.
MIP Presolve eliminated 1 rows and 1 columns.
Reduced MIP has 2833 rows, 5835 columns, and 21171 nonzeros.
Reduced MIP has 5835 binaries, 0 generals, 0 SOSs, and 0 indicators.
Presolve time = 0.03 sec. (25.11 ticks)
Represolve time = 0.35 sec. (261.68 ticks)
  13885     0  -1.30900e+13   320  -1.30900e+13      Cuts: 34   938231    0.00%
  13885     0  -1.30900e+13   334  -1.30900e+13      Cuts: 38   938480    0.00%
  13885     0  -1.30900e+13   332  -1.30900e+13      Cuts: 31   938723    0.00%
  13885     0  -1.30900e+13   325  -1.30900e+13      Cuts: 43   938931    0.00%
  13885     0  -1.30900e+13   310  -1.30900e+13      Cuts: 47   939083    0.00%
  13885     0  -1.30900e+13   339  -1.30900e+13      Cuts: 39   939312    0.00%
  13885     6        cutoff        -1.30900e+13  -1.30900e+13   943621    0.00%
  14622    78  -1.30900e+13   215  -1.30900e+13  -1.30900e+13   983549    0.00%
  15767    77  -1.30900e+13   284  -1.30900e+13  -1.30900e+13   985960    0.00%
  16818   140        cutoff        -1.30900e+13  -1.30900e+13  1047137    0.00%
  17134    72        cutoff        -1.30900e+13  -1.30900e+13  1222429    0.00%

GUB cover cuts applied:  2
Clique cuts applied:  7
Cover cuts applied:  329
Flow cuts applied:  2
Mixed integer rounding cuts applied:  13
Zero-half cuts applied:  53
Lift and project cuts applied:  11
Gomory fractional cuts applied:  26

Root node processing (before b&c):
  Real time             =    1.61 sec. (1411.01 ticks)
Parallel b&c, 40 threads:
  Real time             =   16.53 sec. (11514.16 ticks)
  Sync time (average)   =    3.56 sec.
  Wait time (average)   =    0.18 sec.
                          ------------
Total (root+branch&cut) =   18.14 sec. (12925.17 ticks)

Solution pool: 33 solutions saved.

MIP - Integer optimal solution:  Objective = -1.3089998389e+13
Solution time =   18.24 sec.  Iterations = 1307473  Nodes = 17205
Deterministic time = 12925.20 ticks  (708.53 ticks/sec)

CPLEX> Solution 'p34' written to file 'ee.sol'.
CPLEX> 